Gurobi Optimizer version 9.1.0 build v9.1.0rc0 (linux64)
Thread count: 8 physical cores, 16 logical processors, using up to 16 threads
Optimize a model with 8808 rows, 8160 columns and 44380 nonzeros
Model fingerprint: 0xcc9a2a7d
Variable types: 0 continuous, 8160 integer (8160 binary)
Coefficient statistics:
  Matrix range     [1e+00, 1e+00]
  Objective range  [1e+01, 1e+04]
  Bounds range     [1e+00, 1e+00]
  RHS range        [1e+00, 1e+02]
Presolve removed 20 rows and 20 columns
Presolve time: 0.10s
Presolved: 8788 rows, 8140 columns, 44340 nonzeros
Variable types: 0 continuous, 8140 integer (8140 binary)
Found heuristic solution: objective 79330.000000

Concurrent LP optimizer: primal simplex, dual simplex, and barrier
Showing barrier log only...

Root barrier log...

Ordering time: 0.02s

Barrier statistics:
 Dense cols : 80
 AA' NZ     : 3.814e+04
 Factor NZ  : 1.672e+05 (roughly 8 MBytes of memory)
 Factor Ops : 5.868e+06 (less than 1 second per iteration)
 Threads    : 6

                  Objective                Residual
Iter       Primal          Dual         Primal    Dual     Compl     Time
   0   2.39110512e+06 -3.29107184e+04  3.76e+01 0.00e+00  6.28e+02     0s
   1   1.05131308e+05 -6.43697114e+05  3.91e-01 9.66e+02  3.43e+01     0s
   2   8.50822978e+04  3.15330134e+04  5.15e-02 9.07e+01  2.10e+00     0s
   3   7.75649735e+04  5.80513302e+04  1.09e-02 2.72e+01  7.64e-01     0s
   4   7.48207870e+04  6.40513054e+04  6.89e-03 1.29e+01  4.19e-01     0s
   5   7.24556332e+04  6.60344815e+04  4.05e-03 7.12e+00  2.50e-01     0s
   6   7.05283370e+04  6.68231509e+04  2.15e-03 4.51e+00  1.45e-01     0s
   7   6.96592356e+04  6.72756998e+04  1.36e-03 2.85e+00  9.31e-02     0s
   8   6.89291871e+04  6.75724064e+04  7.14e-04 1.77e+00  5.31e-02     0s
   9   6.87129919e+04  6.77260468e+04  5.44e-04 1.13e+00  3.86e-02     0s
  10   6.86691272e+04  6.77577996e+04  5.12e-04 9.77e-01  3.56e-02     0s
  11   6.86003912e+04  6.77880944e+04  4.61e-04 8.21e-01  3.17e-02     0s
  12   6.85017646e+04  6.77943917e+04  3.89e-04 7.79e-01  2.76e-02     0s
  13   6.83801511e+04  6.78467394e+04  3.03e-04 4.91e-01  2.08e-02     0s
  14   6.81914290e+04  6.78747608e+04  1.66e-04 3.56e-01  1.24e-02     0s
  15   6.81683702e+04  6.78816054e+04  1.51e-04 3.09e-01  1.12e-02     0s
  16   6.80872279e+04  6.78973847e+04  9.73e-05 2.11e-01  7.44e-03     0s
  17   6.80082632e+04  6.79157930e+04  4.77e-05 5.37e-02  3.62e-03     0s
  18   6.79962234e+04  6.79218336e+04  4.03e-05 2.58e-02  2.91e-03     0s
  19   6.79446474e+04  6.79215979e+04  1.08e-05 2.42e-02  9.05e-04     0s
  20   6.79375014e+04  6.79248580e+04  6.73e-06 1.68e-03  4.94e-04     1s
  21   6.79250107e+04  6.79249994e+04  5.33e-09 4.22e-06  4.40e-07     1s
  22   6.79250000e+04  6.79250000e+04  1.47e-10 9.65e-10  4.40e-10     1s

Barrier solved model in 22 iterations and 0.53 seconds
Optimal objective 6.79250000e+04


Solved with barrier

Root relaxation: objective 6.792500e+04, 1942 iterations, 0.42 seconds

    Nodes    |    Current Node    |     Objective Bounds      |     Work
 Expl Unexpl |  Obj  Depth IntInf | Incumbent    BestBd   Gap | It/Node Time

*    0     0               0    67925.000000 67925.0000  0.00%     -    0s

Explored 0 nodes (1942 simplex iterations) in 0.60 seconds
Thread count was 16 (of 16 available processors)

Solution count 2: 67925 79330 

Optimal solution found (tolerance 1.00e-04)
Best objective 6.792500000000e+04, best bound 6.792500000000e+04, gap 0.0000%

User-callback calls 207, time in user-callback 0.01 sec
['/opt/local/stow/gurobi910/linux64/lib/libgurobi91.so']
Optimal Result: runtime=0.59sec; objective=67925
Solution written to /autofs/unityaccount/cremi/mdeboute/Bureau/multi-period-flp/solution/instMulti_I20_J100_T4_0_result.txt
